db/data/23138150124647176213888413719513426.z3.out
-------------------
2500.326360882
